; benchmark generated from python API
(set-info :status unknown)
(declare-fun W_S1_V6 () Bool)
(declare-fun W_S1_V4 () Bool)
(declare-fun W_S1_V2 () Bool)
(declare-fun W_S1_V3 () Bool)
(declare-fun W_S1_V1 () Bool)
(declare-fun R_S1_V6 () Bool)
(declare-fun R_S1_V4 () Bool)
(declare-fun R_S1_V5 () Bool)
(declare-fun R_S1_V2 () Bool)
(declare-fun R_S1_V3 () Bool)
(declare-fun R_S1_V1 () Bool)
(declare-fun R_E2_V1 () Bool)
(declare-fun R_E1_V6 () Bool)
(declare-fun R_E1_V4 () Bool)
(declare-fun R_E1_V5 () Bool)
(declare-fun R_E1_V2 () Bool)
(declare-fun DISJ_W_S1_R_E1 () Bool)
(declare-fun DISJ_W_S1_R_S1 () Bool)
(declare-fun R_E2_V6 () Bool)
(declare-fun R_E2_V4 () Bool)
(declare-fun R_E2_V5 () Bool)
(declare-fun R_E2_V2 () Bool)
(declare-fun DISJ_W_S1_R_E2 () Bool)
(declare-fun W_S1_V5 () Bool)
(declare-fun R_E1_V3 () Bool)
(declare-fun R_E1_V1 () Bool)
(declare-fun R_E2_V3 () Bool)
(assert
 (let (($x3073 (forall ((V2_0 Int) )(forall ((V5_0 Int) )(forall ((V4_0 Int) )(forall ((V6_0 Int) )(forall ((MW_S1_V1 Bool) )(forall ((MW_S1_V3 Bool) )(forall ((MW_S1_V2 Bool) )(forall ((MW_S1_V5 Bool) )(forall ((MW_S1_V4 Bool) )(forall ((MW_S1_V6 Bool) )(forall ((S1_V1_!6750 Int) )(forall ((S1_V1_!6756 Int) )(forall ((S1_V1_!6765 Int) )(forall ((S1_V3_!6751 Int) )(forall ((S1_V3_!6757 Int) )(forall ((S1_V3_!6766 Int) )(forall ((S1_V2_!6752 Int) )(forall ((S1_V2_!6758 Int) )(forall ((S1_V2_!6767 Int) )(forall ((E1_!6747 Int) )(forall ((E1_!6762 Int) )(forall ((E1_!6764 Int) )(forall ((E1_!6771 Int) )(forall ((S1_V5_!6753 Int) )(forall ((S1_V5_!6759 Int) )(forall ((S1_V5_!6768 Int) )(forall ((E2_!6748 Int) )(forall ((E2_!6749 Int) )(forall ((E2_!6763 Int) )(forall ((S1_V4_!6754 Int) )(forall ((S1_V4_!6760 Int) )(forall ((S1_V4_!6769 Int) )(forall ((S1_V6_!6755 Int) )(forall ((S1_V6_!6761 Int) )(forall ((S1_V6_!6770 Int) )(let ((?x3761 (ite MW_S1_V3 S1_V3_!6766 E2_!6763)))
 (let ((?x915 (+ 1 ?x3761)))
 (let ((?x2298 (ite MW_S1_V3 S1_V3_!6751 E2_!6749)))
 (let ((?x803 (+ 1 ?x2298)))
 (let ((?x2473 (ite MW_S1_V3 S1_V3_!6757 ?x803)))
 (let (($x5072 (and (= (ite MW_S1_V1 S1_V1_!6756 E1_!6747) (+ (- 1) E1_!6771)) (= ?x2473 ?x915) (= (ite MW_S1_V2 S1_V2_!6758 V2_0) (ite MW_S1_V2 S1_V2_!6767 V2_0)) (= (ite MW_S1_V5 S1_V5_!6759 V5_0) (ite MW_S1_V5 S1_V5_!6768 V5_0)) (= (ite MW_S1_V4 S1_V4_!6760 V4_0) (ite MW_S1_V4 S1_V4_!6769 V4_0)) (= (ite MW_S1_V6 S1_V6_!6761 V6_0) (ite MW_S1_V6 S1_V6_!6770 V6_0)))))
 (let (($x5001 (and (not (<= V4_0 E2_!6748)) (not (<= V2_0 E1_!6747)) (not (<= V4_0 E2_!6749)) (not (<= (ite MW_S1_V4 S1_V4_!6754 V4_0) ?x803)) (>= ?x2473 (+ (- 1) (ite MW_S1_V4 S1_V4_!6760 V4_0))) (>= (ite MW_S1_V1 S1_V1_!6756 E1_!6747) (+ (- 1) (ite MW_S1_V2 S1_V2_!6758 V2_0))) (not (<= V2_0 E1_!6762)) (not (<= V4_0 E2_!6763)) (not (<= V2_0 E1_!6764)) (>= (ite MW_S1_V1 S1_V1_!6765 E1_!6764) (+ (- 1) (ite MW_S1_V2 S1_V2_!6767 V2_0))) (not (<= (ite MW_S1_V4 S1_V4_!6769 V4_0) ?x915)) (>= E1_!6771 (ite MW_S1_V2 S1_V2_!6767 V2_0)) (>= ?x3761 (+ (- 2) (ite MW_S1_V4 S1_V4_!6769 V4_0))))))
 (let (($x806 (= S1_V6_!6761 S1_V6_!6770)))
 (let (($x3885 (not R_S1_V6)))
 (let (($x987 (or $x3885 (= (ite MW_S1_V6 S1_V6_!6755 V6_0) V6_0))))
 (let (($x5764 (not R_S1_V4)))
 (let (($x937 (or $x5764 (= (ite MW_S1_V4 S1_V4_!6754 V4_0) V4_0))))
 (let (($x6005 (not R_S1_V5)))
 (let (($x3394 (or $x6005 (= (ite MW_S1_V5 S1_V5_!6753 V5_0) V5_0))))
 (let (($x2049 (not R_S1_V2)))
 (let (($x3914 (or $x2049 (= (ite MW_S1_V2 S1_V2_!6752 V2_0) V2_0))))
 (let (($x5443 (and (or (not R_S1_V1) (= (ite MW_S1_V1 S1_V1_!6750 E1_!6747) E1_!6764)) (or (not R_S1_V3) (= ?x2298 (+ (- 1) E2_!6763))) $x3914 $x3394 $x937 $x987)))
 (let (($x3583 (not $x5443)))
 (let (($x699 (and (or (not R_S1_V1) (= E1_!6747 E1_!6764)) (or (not R_S1_V3) (= E2_!6749 E2_!6763)))))
 (let (($x1139 (not $x699)))
 (let (($x5282 (or $x3885 (= V6_0 (ite MW_S1_V6 S1_V6_!6755 V6_0)))))
 (let (($x5110 (or $x5764 (= V4_0 (ite MW_S1_V4 S1_V4_!6754 V4_0)))))
 (let (($x5976 (or $x6005 (= V5_0 (ite MW_S1_V5 S1_V5_!6753 V5_0)))))
 (let (($x2759 (or $x2049 (= V2_0 (ite MW_S1_V2 S1_V2_!6752 V2_0)))))
 (let (($x844 (and (or (not R_S1_V1) (= E1_!6747 (ite MW_S1_V1 S1_V1_!6750 E1_!6747))) (or (not R_S1_V3) (= E2_!6749 ?x803)) $x2759 $x5976 $x5110 $x5282)))
 (let (($x2092 (not $x844)))
 (let (($x3333 (and (or (not R_S1_V1) (= E1_!6764 (ite MW_S1_V1 S1_V1_!6750 E1_!6747))) (or (not R_S1_V3) (= E2_!6763 ?x803)) $x2759 $x5976 $x5110 $x5282)))
 (let (($x1934 (not $x3333)))
 (let (($x50 (and (or (not R_S1_V1) (= E1_!6764 E1_!6747)) (or (not R_S1_V3) (= E2_!6763 E2_!6749)))))
 (let (($x3835 (not $x50)))
 (let (($x712 (and (or (not R_S1_V1) (= (ite MW_S1_V1 S1_V1_!6750 E1_!6747) E1_!6747)) (or (not R_S1_V3) (= ?x2298 (+ (- 1) E2_!6749))) $x3914 $x3394 $x937 $x987)))
 (let (($x2168 (not $x712)))
 (let (($x1548 (= E2_!6749 E2_!6748)))
 (let (($x2533 (and (or (not R_E1_V2) (= (ite MW_S1_V2 S1_V2_!6767 V2_0) V2_0)) (or (not R_E1_V5) (= (ite MW_S1_V5 S1_V5_!6768 V5_0) V5_0)) (or (not R_E1_V4) (= (ite MW_S1_V4 S1_V4_!6769 V4_0) V4_0)) (or (not R_E1_V6) (= (ite MW_S1_V6 S1_V6_!6770 V6_0) V6_0)))))
 (let (($x1893 (and (or (not R_E1_V2) (= V2_0 (ite MW_S1_V2 S1_V2_!6767 V2_0))) (or (not R_E1_V5) (= V5_0 (ite MW_S1_V5 S1_V5_!6768 V5_0))) (or (not R_E1_V4) (= V4_0 (ite MW_S1_V4 S1_V4_!6769 V4_0))) (or (not R_E1_V6) (= V6_0 (ite MW_S1_V6 S1_V6_!6770 V6_0))))))
 (let (($x1629 (not $x1893)))
 (let (($x1391 (= E1_!6764 E1_!6762)))
 (let (($x5061 (= E1_!6764 E1_!6747)))
 (let (($x632 (= E1_!6747 E1_!6762)))
 (let (($x2642 (and (or $x2092 (= S1_V1_!6750 S1_V1_!6756)) (or $x3835 (= S1_V1_!6765 S1_V1_!6750)) (or $x1934 (= S1_V1_!6765 S1_V1_!6756)) (or $x2092 (= S1_V3_!6751 S1_V3_!6757)) (or $x3835 (= S1_V3_!6766 S1_V3_!6751)) (or $x1934 (= S1_V3_!6766 S1_V3_!6757)) (or $x2168 (= S1_V2_!6758 S1_V2_!6752)) (or $x3583 (= S1_V2_!6758 S1_V2_!6767)) (or $x3835 (= S1_V2_!6767 S1_V2_!6752)) $x632 (or $x1629 (= E1_!6747 E1_!6771)) $x5061 $x1391 (or $x1629 (= E1_!6764 E1_!6771)) (or (not $x2533) (= E1_!6771 E1_!6762)) (or $x1139 (= S1_V5_!6753 S1_V5_!6768)) (or $x2168 (= S1_V5_!6759 S1_V5_!6753)) (or $x3583 (= S1_V5_!6759 S1_V5_!6768)) $x1548 (or (not (or (not R_E2_V1) (= E1_!6762 E1_!6747))) (= E2_!6763 E2_!6748)) (or (not (or (not R_E2_V1) (= E1_!6762 E1_!6747))) (= E2_!6763 E2_!6749)) (or $x2168 (= S1_V4_!6760 S1_V4_!6754)) (or $x3835 (= S1_V4_!6769 S1_V4_!6754)) (or $x1934 (= S1_V4_!6769 S1_V4_!6760)) (or $x2092 (= S1_V6_!6755 S1_V6_!6761)) (or $x1139 (= S1_V6_!6755 S1_V6_!6770)) (or $x3583 $x806) (or (not MW_S1_V1) W_S1_V1) (or (not MW_S1_V3) W_S1_V3) (or (not MW_S1_V2) W_S1_V2) (or (not MW_S1_V4) W_S1_V4) (or (not MW_S1_V6) W_S1_V6))))
 (or (not $x2642) (not $x5001) $x5072))))))))))))))))))))))))))))))))))))))))))
 )
 )
 )
 )
 )
 )
 )
 )
 )
 )
 )
 )
 )
 )
 )
 )
 )
 )
 )
 )
 )
 )
 )
 )
 )
 )
 )
 )
 )
 )
 )
 )
 )
 )
 ))
 (let (($x746 (and W_S1_V6 R_E1_V6)))
 (let (($x5036 (and W_S1_V4 R_E1_V4)))
 (let (($x2750 (and W_S1_V2 R_E1_V2)))
 (let (($x2349 (= DISJ_W_S1_R_E1 (not (or $x2750 R_E1_V5 $x5036 $x746)))))
 (let (($x1005 (and W_S1_V6 R_S1_V6)))
 (let (($x342 (and W_S1_V4 R_S1_V4)))
 (let (($x4669 (and W_S1_V2 R_S1_V2)))
 (let (($x2258 (and W_S1_V3 R_S1_V3)))
 (let (($x1637 (and W_S1_V1 R_S1_V1)))
 (let (($x3571 (= DISJ_W_S1_R_S1 (not (or $x1637 $x2258 $x4669 R_S1_V5 $x342 $x1005)))))
 (let (($x135 (and W_S1_V6 R_E2_V6)))
 (let (($x2969 (and W_S1_V4 R_E2_V4)))
 (let (($x2239 (and W_S1_V2 R_E2_V2)))
 (let (($x489 (and W_S1_V1 R_E2_V1)))
 (let (($x48 (= DISJ_W_S1_R_E2 (not (or $x489 $x2239 R_E2_V5 $x2969 $x135)))))
 (let (($x3577 (not W_S1_V4)))
 (let (($x4282 (not W_S1_V2)))
 (let (($x3483 (not R_S1_V3)))
 (let (($x120 (not R_S1_V1)))
 (let (($x2711 (and $x120 $x3483 $x4282 $x3577)))
 (let (($x2058 (and (not W_S1_V3) $x3577)))
 (let (($x5438 (not W_S1_V1)))
 (let (($x1551 (and $x5438 $x4282)))
 (let (($x1963 (and $x120 DISJ_W_S1_R_S1)))
 (let (($x5277 (and $x3483 DISJ_W_S1_R_S1)))
 (let (($x465 (and $x3577 DISJ_W_S1_R_S1)))
 (let (($x900 (and $x4282 DISJ_W_S1_R_S1)))
 (let (($x3412 (or $x900 $x465 $x5277 $x1963 $x1551 $x2058 $x2711)))
 (let (($x2684 (not R_E1_V3)))
 (let (($x3027 (not R_E1_V1)))
 (let (($x1311 (not R_E2_V3)))
 (and $x1311 $x3027 $x2684 $x3412 W_S1_V5 $x48 $x3571 $x2349 $x3073))))))))))))))))))))))))))))))))))
(check-sat)
